c FILE /home/rafael/Documents/HappySet/MIHS/inputs/happygen/output/graph_random_k4_p0.2_v100_20241127_083621.txt
c SOURCE This is a random graph formed for the happy graph colouring problem.
c DESCRIPTION It was generated using the problem generator of Rhyd Lewis
c
c GRAPH STATS
c Seed                             = -246128827
c Number of Nodes                  = 100
c Edge probability defined by user = 0.5
c Number of colours k              = 4
c Number of pre-assignments        = 20
c Actual density                   = 0.49899
c 
c The degrees of nodes 1 to 100, respectively, are as follows 
c [61, 61, 60, 60, 59, 58, 57, 57, 56, 56, 56, 55, 55, 55, 54, 54, 54, 54, 54, 54, 53, 53, 53, 53, 53, 53, 
c  53, 53, 52, 52, 52, 52, 52, 51, 51, 51, 51, 51, 51, 51, 51, 50, 50, 50, 50, 50, 50, 50, 50, 50, 49, 
c  49, 49, 49, 48, 48, 48, 48, 48, 48, 48, 48, 47, 47, 47, 47, 47, 47, 47, 46, 46, 46, 46, 46, 46, 45, 
c  45, 45, 45, 45, 45, 45, 45, 45, 45, 44, 44, 44, 44, 44, 43, 43, 43, 42, 42, 41, 40, 40, 40, 39] 
c  
p edge 100 2470 4
e 1 2
e 1 5
e 1 6
e 1 7
e 1 8
e 1 10
e 1 11
e 1 14
e 1 18
e 1 19
e 1 20
e 1 21
e 1 23
e 1 24
e 1 25
e 1 26
e 1 27
e 1 28
e 1 31
e 1 32
e 1 33
e 1 35
e 1 37
e 1 38
e 1 39
e 1 40
e 1 41
e 1 42
e 1 43
e 1 49
e 1 50
e 1 52
e 1 54
e 1 55
e 1 56
e 1 58
e 1 59
e 1 60
e 1 61
e 1 63
e 1 65
e 1 66
e 1 67
e 1 69
e 1 70
e 1 71
e 1 72
e 1 73
e 1 75
e 1 76
e 1 77
e 1 78
e 1 84
e 1 90
e 1 91
e 1 92
e 1 93
e 1 95
e 1 97
e 1 98
e 1 99
e 2 3
e 2 4
e 2 5
e 2 7
e 2 8
e 2 9
e 2 10
e 2 11
e 2 12
e 2 13
e 2 15
e 2 16
e 2 17
e 2 18
e 2 19
e 2 21
e 2 22
e 2 31
e 2 33
e 2 34
e 2 36
e 2 37
e 2 39
e 2 46
e 2 47
e 2 48
e 2 49
e 2 50
e 2 51
e 2 52
e 2 54
e 2 55
e 2 57
e 2 58
e 2 59
e 2 60
e 2 61
e 2 62
e 2 63
e 2 64
e 2 65
e 2 66
e 2 67
e 2 68
e 2 70
e 2 75
e 2 78
e 2 79
e 2 81
e 2 82
e 2 83
e 2 85
e 2 87
e 2 89
e 2 90
e 2 91
e 2 93
e 2 95
e 2 96
e 2 97
e 3 4
e 3 5
e 3 6
e 3 7
e 3 8
e 3 9
e 3 10
e 3 11
e 3 14
e 3 19
e 3 20
e 3 25
e 3 26
e 3 27
e 3 28
e 3 30
e 3 32
e 3 33
e 3 35
e 3 36
e 3 37
e 3 39
e 3 40
e 3 41
e 3 42
e 3 44
e 3 45
e 3 48
e 3 49
e 3 51
e 3 52
e 3 53
e 3 54
e 3 55
e 3 56
e 3 57
e 3 59
e 3 60
e 3 64
e 3 65
e 3 68
e 3 70
e 3 71
e 3 72
e 3 75
e 3 76
e 3 78
e 3 79
e 3 81
e 3 83
e 3 84
e 3 85
e 3 88
e 3 91
e 3 93
e 3 94
e 3 95
e 3 97
e 3 98
e 4 5
e 4 6
e 4 7
e 4 9
e 4 10
e 4 11
e 4 12
e 4 13
e 4 14
e 4 16
e 4 17
e 4 18
e 4 19
e 4 21
e 4 25
e 4 28
e 4 29
e 4 31
e 4 32
e 4 34
e 4 35
e 4 37
e 4 39
e 4 40
e 4 41
e 4 42
e 4 43
e 4 44
e 4 45
e 4 47
e 4 49
e 4 50
e 4 52
e 4 54
e 4 55
e 4 58
e 4 59
e 4 63
e 4 64
e 4 66
e 4 67
e 4 68
e 4 69
e 4 70
e 4 71
e 4 73
e 4 76
e 4 80
e 4 81
e 4 82
e 4 83
e 4 84
e 4 91
e 4 92
e 4 93
e 4 95
e 4 98
e 4 100
e 5 6
e 5 7
e 5 10
e 5 11
e 5 12
e 5 13
e 5 14
e 5 16
e 5 17
e 5 19
e 5 20
e 5 21
e 5 22
e 5 25
e 5 26
e 5 28
e 5 31
e 5 32
e 5 38
e 5 39
e 5 42
e 5 43
e 5 44
e 5 45
e 5 46
e 5 49
e 5 50
e 5 52
e 5 56
e 5 59
e 5 60
e 5 62
e 5 64
e 5 65
e 5 66
e 5 67
e 5 68
e 5 69
e 5 70
e 5 71
e 5 76
e 5 77
e 5 79
e 5 80
e 5 83
e 5 85
e 5 86
e 5 88
e 5 89
e 5 90
e 5 91
e 5 93
e 5 94
e 5 95
e 5 96
e 6 7
e 6 10
e 6 11
e 6 12
e 6 16
e 6 17
e 6 18
e 6 23
e 6 25
e 6 26
e 6 29
e 6 31
e 6 33
e 6 34
e 6 35
e 6 38
e 6 39
e 6 42
e 6 43
e 6 44
e 6 46
e 6 47
e 6 49
e 6 53
e 6 54
e 6 55
e 6 57
e 6 58
e 6 63
e 6 65
e 6 66
e 6 67
e 6 68
e 6 69
e 6 71
e 6 72
e 6 73
e 6 74
e 6 77
e 6 78
e 6 79
e 6 80
e 6 82
e 6 83
e 6 84
e 6 85
e 6 87
e 6 89
e 6 90
e 6 91
e 6 93
e 6 94
e 6 95
e 6 97
e 7 8
e 7 9
e 7 10
e 7 12
e 7 15
e 7 16
e 7 17
e 7 18
e 7 21
e 7 25
e 7 26
e 7 27
e 7 28
e 7 29
e 7 30
e 7 33
e 7 36
e 7 37
e 7 38
e 7 39
e 7 40
e 7 42
e 7 44
e 7 45
e 7 47
e 7 49
e 7 55
e 7 56
e 7 61
e 7 62
e 7 64
e 7 65
e 7 66
e 7 70
e 7 74
e 7 75
e 7 76
e 7 78
e 7 80
e 7 83
e 7 84
e 7 85
e 7 86
e 7 88
e 7 89
e 7 90
e 7 91
e 7 93
e 7 96
e 7 97
e 7 98
e 8 9
e 8 10
e 8 12
e 8 13
e 8 14
e 8 17
e 8 19
e 8 21
e 8 22
e 8 23
e 8 24
e 8 25
e 8 29
e 8 32
e 8 33
e 8 34
e 8 38
e 8 39
e 8 41
e 8 44
e 8 45
e 8 46
e 8 48
e 8 49
e 8 51
e 8 52
e 8 55
e 8 57
e 8 61
e 8 63
e 8 64
e 8 67
e 8 68
e 8 70
e 8 71
e 8 72
e 8 74
e 8 76
e 8 78
e 8 79
e 8 82
e 8 83
e 8 84
e 8 85
e 8 86
e 8 89
e 8 90
e 8 91
e 8 95
e 8 96
e 8 98
e 8 99
e 8 100
e 9 10
e 9 11
e 9 12
e 9 13
e 9 14
e 9 16
e 9 22
e 9 23
e 9 24
e 9 26
e 9 27
e 9 28
e 9 32
e 9 34
e 9 35
e 9 36
e 9 37
e 9 38
e 9 39
e 9 40
e 9 41
e 9 43
e 9 45
e 9 47
e 9 52
e 9 53
e 9 54
e 9 55
e 9 56
e 9 57
e 9 58
e 9 60
e 9 62
e 9 66
e 9 67
e 9 68
e 9 70
e 9 72
e 9 73
e 9 74
e 9 75
e 9 76
e 9 80
e 9 83
e 9 84
e 9 85
e 9 86
e 9 87
e 9 88
e 9 92
e 9 98
e 10 11
e 10 13
e 10 14
e 10 15
e 10 17
e 10 18
e 10 19
e 10 20
e 10 22
e 10 24
e 10 28
e 10 31
e 10 32
e 10 33
e 10 35
e 10 37
e 10 39
e 10 41
e 10 43
e 10 44
e 10 45
e 10 46
e 10 47
e 10 49
e 10 54
e 10 55
e 10 58
e 10 59
e 10 62
e 10 63
e 10 66
e 10 67
e 10 68
e 10 71
e 10 73
e 10 74
e 10 77
e 10 81
e 10 85
e 10 87
e 10 89
e 10 90
e 10 91
e 10 93
e 10 96
e 10 97
e 10 100
e 11 12
e 11 13
e 11 14
e 11 16
e 11 18
e 11 20
e 11 21
e 11 22
e 11 23
e 11 24
e 11 26
e 11 30
e 11 31
e 11 32
e 11 33
e 11 34
e 11 35
e 11 38
e 11 39
e 11 40
e 11 42
e 11 44
e 11 45
e 11 50
e 11 51
e 11 52
e 11 53
e 11 56
e 11 57
e 11 60
e 11 62
e 11 64
e 11 67
e 11 68
e 11 69
e 11 74
e 11 75
e 11 79
e 11 80
e 11 82
e 11 83
e 11 86
e 11 88
e 11 91
e 11 92
e 11 96
e 11 99
e 11 100
e 12 14
e 12 15
e 12 16
e 12 19
e 12 21
e 12 24
e 12 25
e 12 26
e 12 28
e 12 29
e 12 30
e 12 33
e 12 34
e 12 35
e 12 40
e 12 41
e 12 42
e 12 43
e 12 45
e 12 48
e 12 50
e 12 51
e 12 53
e 12 54
e 12 55
e 12 56
e 12 57
e 12 58
e 12 60
e 12 61
e 12 66
e 12 67
e 12 73
e 12 74
e 12 75
e 12 77
e 12 78
e 12 80
e 12 81
e 12 87
e 12 88
e 12 89
e 12 90
e 12 92
e 12 94
e 12 95
e 12 99
e 13 14
e 13 15
e 13 16
e 13 17
e 13 19
e 13 20
e 13 21
e 13 23
e 13 24
e 13 25
e 13 28
e 13 29
e 13 30
e 13 31
e 13 36
e 13 37
e 13 40
e 13 41
e 13 43
e 13 44
e 13 45
e 13 46
e 13 47
e 13 48
e 13 49
e 13 50
e 13 52
e 13 53
e 13 54
e 13 58
e 13 59
e 13 61
e 13 62
e 13 65
e 13 66
e 13 67
e 13 69
e 13 70
e 13 72
e 13 73
e 13 75
e 13 76
e 13 77
e 13 82
e 13 84
e 13 86
e 13 88
e 13 91
e 14 18
e 14 24
e 14 25
e 14 27
e 14 28
e 14 29
e 14 30
e 14 34
e 14 35
e 14 37
e 14 39
e 14 40
e 14 42
e 14 43
e 14 44
e 14 45
e 14 50
e 14 51
e 14 54
e 14 56
e 14 57
e 14 58
e 14 60
e 14 62
e 14 63
e 14 64
e 14 67
e 14 72
e 14 73
e 14 74
e 14 75
e 14 78
e 14 80
e 14 85
e 14 87
e 14 89
e 14 90
e 14 91
e 14 92
e 14 93
e 14 94
e 14 95
e 14 98
e 14 99
e 14 100
e 15 16
e 15 17
e 15 21
e 15 22
e 15 26
e 15 27
e 15 28
e 15 29
e 15 30
e 15 31
e 15 33
e 15 34
e 15 35
e 15 36
e 15 37
e 15 39
e 15 40
e 15 43
e 15 46
e 15 48
e 15 49
e 15 50
e 15 51
e 15 52
e 15 53
e 15 57
e 15 58
e 15 59
e 15 62
e 15 63
e 15 65
e 15 67
e 15 69
e 15 73
e 15 74
e 15 75
e 15 78
e 15 79
e 15 80
e 15 81
e 15 82
e 15 83
e 15 84
e 15 85
e 15 88
e 15 89
e 15 90
e 15 91
e 15 92
e 16 18
e 16 20
e 16 21
e 16 22
e 16 25
e 16 26
e 16 27
e 16 28
e 16 30
e 16 31
e 16 32
e 16 33
e 16 34
e 16 35
e 16 37
e 16 39
e 16 40
e 16 44
e 16 45
e 16 46
e 16 47
e 16 49
e 16 50
e 16 53
e 16 60
e 16 61
e 16 62
e 16 64
e 16 65
e 16 67
e 16 69
e 16 71
e 16 73
e 16 78
e 16 83
e 16 86
e 16 87
e 16 88
e 16 89
e 16 92
e 16 93
e 16 94
e 16 97
e 16 98
e 17 19
e 17 20
e 17 21
e 17 22
e 17 23
e 17 26
e 17 27
e 17 28
e 17 29
e 17 32
e 17 34
e 17 35
e 17 36
e 17 37
e 17 38
e 17 40
e 17 41
e 17 42
e 17 44
e 17 47
e 17 48
e 17 49
e 17 53
e 17 56
e 17 57
e 17 58
e 17 59
e 17 62
e 17 64
e 17 67
e 17 70
e 17 71
e 17 72
e 17 76
e 17 79
e 17 80
e 17 81
e 17 82
e 17 83
e 17 85
e 17 87
e 17 92
e 17 95
e 17 96
e 17 98
e 18 21
e 18 23
e 18 24
e 18 25
e 18 27
e 18 29
e 18 30
e 18 31
e 18 32
e 18 33
e 18 34
e 18 37
e 18 38
e 18 40
e 18 44
e 18 46
e 18 47
e 18 48
e 18 50
e 18 51
e 18 52
e 18 54
e 18 55
e 18 58
e 18 62
e 18 63
e 18 64
e 18 68
e 18 71
e 18 72
e 18 73
e 18 75
e 18 77
e 18 79
e 18 80
e 18 82
e 18 83
e 18 84
e 18 88
e 18 90
e 18 92
e 18 95
e 18 96
e 18 97
e 18 98
e 19 21
e 19 22
e 19 23
e 19 24
e 19 25
e 19 26
e 19 30
e 19 31
e 19 32
e 19 34
e 19 36
e 19 37
e 19 38
e 19 39
e 19 41
e 19 43
e 19 44
e 19 45
e 19 46
e 19 48
e 19 51
e 19 53
e 19 56
e 19 58
e 19 61
e 19 62
e 19 64
e 19 66
e 19 71
e 19 72
e 19 73
e 19 75
e 19 78
e 19 79
e 19 82
e 19 88
e 19 89
e 19 90
e 19 91
e 19 92
e 19 95
e 19 96
e 19 98
e 19 100
e 20 21
e 20 22
e 20 23
e 20 25
e 20 27
e 20 28
e 20 30
e 20 32
e 20 33
e 20 34
e 20 35
e 20 36
e 20 37
e 20 38
e 20 41
e 20 42
e 20 43
e 20 45
e 20 46
e 20 47
e 20 50
e 20 51
e 20 53
e 20 55
e 20 58
e 20 61
e 20 63
e 20 65
e 20 67
e 20 70
e 20 71
e 20 73
e 20 77
e 20 78
e 20 80
e 20 82
e 20 83
e 20 84
e 20 85
e 20 86
e 20 87
e 20 90
e 20 91
e 20 93
e 20 99
e 20 100
e 21 22
e 21 23
e 21 24
e 21 26
e 21 31
e 21 33
e 21 36
e 21 37
e 21 38
e 21 39
e 21 40
e 21 44
e 21 45
e 21 48
e 21 50
e 21 51
e 21 52
e 21 55
e 21 58
e 21 64
e 21 65
e 21 68
e 21 69
e 21 76
e 21 77
e 21 78
e 21 79
e 21 80
e 21 82
e 21 85
e 21 88
e 21 90
e 21 92
e 21 94
e 21 95
e 21 97
e 21 98
e 21 99
e 22 23
e 22 24
e 22 28
e 22 29
e 22 30
e 22 31
e 22 35
e 22 36
e 22 38
e 22 39
e 22 41
e 22 43
e 22 45
e 22 47
e 22 48
e 22 49
e 22 50
e 22 51
e 22 54
e 22 56
e 22 58
e 22 59
e 22 60
e 22 62
e 22 63
e 22 71
e 22 74
e 22 75
e 22 76
e 22 77
e 22 78
e 22 79
e 22 81
e 22 84
e 22 85
e 22 86
e 22 87
e 22 89
e 22 93
e 22 94
e 22 99
e 23 24
e 23 25
e 23 26
e 23 27
e 23 28
e 23 29
e 23 32
e 23 33
e 23 34
e 23 36
e 23 37
e 23 39
e 23 42
e 23 44
e 23 45
e 23 46
e 23 48
e 23 49
e 23 50
e 23 55
e 23 57
e 23 58
e 23 60
e 23 61
e 23 64
e 23 65
e 23 68
e 23 69
e 23 71
e 23 73
e 23 75
e 23 76
e 23 77
e 23 79
e 23 80
e 23 82
e 23 84
e 23 87
e 23 91
e 23 93
e 23 95
e 24 25
e 24 27
e 24 28
e 24 29
e 24 30
e 24 34
e 24 37
e 24 41
e 24 43
e 24 44
e 24 45
e 24 47
e 24 49
e 24 52
e 24 53
e 24 55
e 24 59
e 24 60
e 24 61
e 24 65
e 24 68
e 24 69
e 24 70
e 24 71
e 24 72
e 24 74
e 24 77
e 24 78
e 24 80
e 24 81
e 24 82
e 24 83
e 24 86
e 24 87
e 24 89
e 24 93
e 24 94
e 24 97
e 24 98
e 24 100
e 25 31
e 25 32
e 25 35
e 25 36
e 25 37
e 25 38
e 25 41
e 25 42
e 25 43
e 25 45
e 25 48
e 25 49
e 25 52
e 25 54
e 25 57
e 25 58
e 25 60
e 25 62
e 25 64
e 25 67
e 25 69
e 25 70
e 25 73
e 25 74
e 25 76
e 25 77
e 25 80
e 25 81
e 25 82
e 25 84
e 25 85
e 25 88
e 25 90
e 25 92
e 25 96
e 25 97
e 25 99
e 26 27
e 26 28
e 26 29
e 26 30
e 26 31
e 26 32
e 26 34
e 26 36
e 26 37
e 26 38
e 26 39
e 26 43
e 26 44
e 26 45
e 26 47
e 26 48
e 26 49
e 26 50
e 26 52
e 26 53
e 26 56
e 26 57
e 26 59
e 26 60
e 26 61
e 26 62
e 26 63
e 26 66
e 26 67
e 26 68
e 26 69
e 26 72
e 26 73
e 26 75
e 26 83
e 26 89
e 26 91
e 26 95
e 26 96
e 27 29
e 27 30
e 27 31
e 27 32
e 27 33
e 27 37
e 27 40
e 27 41
e 27 42
e 27 43
e 27 45
e 27 46
e 27 47
e 27 48
e 27 50
e 27 54
e 27 56
e 27 57
e 27 60
e 27 61
e 27 62
e 27 63
e 27 64
e 27 65
e 27 66
e 27 68
e 27 73
e 27 76
e 27 77
e 27 81
e 27 82
e 27 84
e 27 86
e 27 89
e 27 94
e 27 95
e 27 96
e 27 97
e 27 98
e 27 99
e 28 29
e 28 30
e 28 31
e 28 32
e 28 33
e 28 34
e 28 35
e 28 37
e 28 42
e 28 44
e 28 48
e 28 51
e 28 52
e 28 53
e 28 55
e 28 58
e 28 60
e 28 61
e 28 64
e 28 65
e 28 66
e 28 67
e 28 69
e 28 71
e 28 73
e 28 75
e 28 76
e 28 78
e 28 79
e 28 82
e 28 85
e 28 89
e 28 91
e 28 97
e 28 99
e 29 30
e 29 36
e 29 37
e 29 38
e 29 42
e 29 46
e 29 47
e 29 48
e 29 49
e 29 50
e 29 55
e 29 57
e 29 61
e 29 63
e 29 64
e 29 65
e 29 66
e 29 67
e 29 68
e 29 70
e 29 72
e 29 73
e 29 74
e 29 78
e 29 79
e 29 80
e 29 81
e 29 84
e 29 85
e 29 86
e 29 90
e 29 92
e 29 95
e 29 97
e 29 98
e 29 100
e 30 32
e 30 33
e 30 34
e 30 37
e 30 39
e 30 40
e 30 41
e 30 44
e 30 46
e 30 47
e 30 48
e 30 49
e 30 50
e 30 51
e 30 57
e 30 60
e 30 61
e 30 64
e 30 65
e 30 70
e 30 71
e 30 72
e 30 73
e 30 74
e 30 77
e 30 79
e 30 80
e 30 81
e 30 84
e 30 90
e 30 91
e 30 93
e 30 94
e 30 95
e 30 97
e 31 32
e 31 33
e 31 34
e 31 35
e 31 37
e 31 40
e 31 42
e 31 43
e 31 44
e 31 46
e 31 47
e 31 48
e 31 50
e 31 54
e 31 55
e 31 58
e 31 61
e 31 62
e 31 63
e 31 65
e 31 66
e 31 68
e 31 69
e 31 70
e 31 75
e 31 78
e 31 80
e 31 82
e 31 85
e 31 86
e 31 87
e 31 92
e 31 93
e 31 94
e 32 34
e 32 37
e 32 42
e 32 43
e 32 45
e 32 47
e 32 49
e 32 50
e 32 52
e 32 56
e 32 59
e 32 60
e 32 61
e 32 65
e 32 66
e 32 68
e 32 69
e 32 70
e 32 71
e 32 72
e 32 75
e 32 79
e 32 81
e 32 84
e 32 86
e 32 87
e 32 91
e 32 92
e 32 95
e 32 96
e 32 98
e 32 99
e 33 35
e 33 39
e 33 41
e 33 42
e 33 43
e 33 44
e 33 47
e 33 48
e 33 49
e 33 50
e 33 51
e 33 57
e 33 60
e 33 61
e 33 63
e 33 64
e 33 65
e 33 70
e 33 73
e 33 74
e 33 76
e 33 82
e 33 83
e 33 84
e 33 85
e 33 88
e 33 89
e 33 92
e 33 94
e 33 97
e 33 98
e 33 99
e 33 100
e 34 36
e 34 37
e 34 45
e 34 46
e 34 47
e 34 49
e 34 50
e 34 51
e 34 53
e 34 54
e 34 55
e 34 56
e 34 57
e 34 58
e 34 60
e 34 61
e 34 64
e 34 65
e 34 68
e 34 70
e 34 71
e 34 73
e 34 76
e 34 84
e 34 89
e 34 93
e 34 94
e 34 95
e 34 96
e 34 99
e 35 36
e 35 37
e 35 39
e 35 40
e 35 42
e 35 43
e 35 44
e 35 46
e 35 47
e 35 48
e 35 52
e 35 54
e 35 55
e 35 56
e 35 59
e 35 60
e 35 61
e 35 63
e 35 65
e 35 69
e 35 73
e 35 74
e 35 78
e 35 79
e 35 80
e 35 85
e 35 89
e 35 90
e 35 91
e 35 92
e 35 95
e 35 97
e 35 98
e 36 37
e 36 39
e 36 41
e 36 42
e 36 43
e 36 45
e 36 46
e 36 47
e 36 48
e 36 50
e 36 51
e 36 54
e 36 55
e 36 56
e 36 58
e 36 59
e 36 61
e 36 62
e 36 63
e 36 64
e 36 65
e 36 66
e 36 69
e 36 70
e 36 75
e 36 78
e 36 80
e 36 88
e 36 90
e 36 91
e 36 92
e 36 93
e 36 94
e 36 96
e 37 39
e 37 46
e 37 47
e 37 54
e 37 55
e 37 57
e 37 59
e 37 63
e 37 64
e 37 68
e 37 71
e 37 74
e 37 75
e 37 79
e 37 80
e 37 81
e 37 82
e 37 87
e 37 88
e 37 89
e 37 92
e 37 100
e 38 41
e 38 43
e 38 44
e 38 46
e 38 49
e 38 50
e 38 51
e 38 52
e 38 53
e 38 54
e 38 56
e 38 59
e 38 60
e 38 61
e 38 64
e 38 65
e 38 66
e 38 67
e 38 68
e 38 72
e 38 73
e 38 74
e 38 75
e 38 76
e 38 77
e 38 79
e 38 80
e 38 81
e 38 86
e 38 87
e 38 88
e 38 90
e 38 93
e 38 94
e 38 95
e 39 41
e 39 44
e 39 45
e 39 47
e 39 48
e 39 51
e 39 52
e 39 54
e 39 56
e 39 58
e 39 62
e 39 73
e 39 75
e 39 77
e 39 78
e 39 79
e 39 80
e 39 82
e 39 86
e 39 87
e 39 88
e 39 90
e 39 93
e 39 94
e 39 95
e 39 97
e 39 100
e 40 41
e 40 43
e 40 44
e 40 46
e 40 47
e 40 48
e 40 49
e 40 50
e 40 51
e 40 52
e 40 53
e 40 54
e 40 55
e 40 59
e 40 61
e 40 64
e 40 67
e 40 68
e 40 71
e 40 72
e 40 74
e 40 76
e 40 77
e 40 81
e 40 83
e 40 84
e 40 86
e 40 87
e 40 92
e 40 93
e 40 94
e 40 95
e 40 98
e 41 45
e 41 46
e 41 48
e 41 50
e 41 52
e 41 53
e 41 59
e 41 61
e 41 62
e 41 63
e 41 64
e 41 65
e 41 67
e 41 68
e 41 69
e 41 70
e 41 71
e 41 74
e 41 77
e 41 83
e 41 84
e 41 90
e 41 92
e 41 93
e 41 94
e 41 96
e 41 97
e 41 98
e 41 99
e 41 100
e 42 43
e 42 45
e 42 49
e 42 52
e 42 53
e 42 54
e 42 56
e 42 59
e 42 60
e 42 62
e 42 63
e 42 64
e 42 65
e 42 67
e 42 68
e 42 70
e 42 71
e 42 75
e 42 77
e 42 78
e 42 79
e 42 81
e 42 84
e 42 89
e 42 91
e 42 92
e 42 94
e 42 98
e 42 99
e 43 44
e 43 49
e 43 56
e 43 57
e 43 60
e 43 62
e 43 63
e 43 64
e 43 65
e 43 66
e 43 68
e 43 75
e 43 76
e 43 77
e 43 79
e 43 80
e 43 82
e 43 83
e 43 85
e 43 89
e 43 90
e 43 92
e 43 96
e 43 98
e 43 100
e 44 48
e 44 49
e 44 50
e 44 51
e 44 54
e 44 55
e 44 58
e 44 60
e 44 62
e 44 64
e 44 66
e 44 72
e 44 73
e 44 74
e 44 75
e 44 76
e 44 87
e 44 88
e 44 89
e 44 94
e 44 95
e 44 96
e 44 98
e 45 46
e 45 47
e 45 49
e 45 50
e 45 51
e 45 53
e 45 54
e 45 57
e 45 62
e 45 63
e 45 67
e 45 69
e 45 73
e 45 74
e 45 77
e 45 79
e 45 81
e 45 82
e 45 84
e 45 92
e 45 93
e 45 96
e 45 98
e 46 47
e 46 48
e 46 50
e 46 51
e 46 52
e 46 55
e 46 56
e 46 60
e 46 62
e 46 63
e 46 64
e 46 66
e 46 68
e 46 70
e 46 71
e 46 75
e 46 78
e 46 80
e 46 81
e 46 82
e 46 86
e 46 88
e 46 90
e 46 91
e 46 93
e 46 99
e 47 48
e 47 52
e 47 56
e 47 57
e 47 60
e 47 66
e 47 68
e 47 69
e 47 70
e 47 74
e 47 79
e 47 80
e 47 81
e 47 82
e 47 83
e 47 86
e 47 88
e 47 91
e 47 92
e 47 96
e 47 98
e 47 99
e 48 53
e 48 56
e 48 58
e 48 59
e 48 62
e 48 63
e 48 65
e 48 75
e 48 76
e 48 77
e 48 80
e 48 81
e 48 82
e 48 83
e 48 84
e 48 87
e 48 88
e 48 89
e 48 95
e 48 96
e 48 97
e 48 98
e 49 50
e 49 51
e 49 53
e 49 59
e 49 60
e 49 61
e 49 66
e 49 70
e 49 71
e 49 72
e 49 74
e 49 76
e 49 78
e 49 80
e 49 81
e 49 83
e 49 88
e 49 89
e 49 96
e 49 97
e 49 99
e 50 52
e 50 53
e 50 56
e 50 58
e 50 59
e 50 61
e 50 62
e 50 65
e 50 66
e 50 67
e 50 71
e 50 76
e 50 79
e 50 83
e 50 87
e 50 88
e 50 90
e 50 93
e 50 95
e 51 52
e 51 53
e 51 54
e 51 59
e 51 62
e 51 66
e 51 67
e 51 71
e 51 72
e 51 74
e 51 75
e 51 77
e 51 79
e 51 80
e 51 82
e 51 84
e 51 85
e 51 86
e 51 87
e 51 89
e 51 93
e 51 94
e 51 97
e 51 98
e 51 99
e 52 53
e 52 55
e 52 57
e 52 62
e 52 65
e 52 69
e 52 70
e 52 74
e 52 75
e 52 78
e 52 81
e 52 84
e 52 85
e 52 87
e 52 88
e 52 92
e 52 93
e 52 95
e 52 96
e 52 97
e 52 99
e 52 100
e 53 55
e 53 57
e 53 58
e 53 59
e 53 60
e 53 65
e 53 68
e 53 69
e 53 70
e 53 72
e 53 74
e 53 75
e 53 80
e 53 81
e 53 85
e 53 86
e 53 89
e 53 90
e 53 92
e 53 93
e 53 94
e 53 97
e 53 99
e 53 100
e 54 57
e 54 59
e 54 61
e 54 62
e 54 68
e 54 71
e 54 72
e 54 73
e 54 77
e 54 78
e 54 80
e 54 82
e 54 85
e 54 86
e 54 89
e 54 90
e 54 92
e 54 93
e 54 94
e 54 96
e 54 97
e 54 98
e 54 100
e 55 56
e 55 58
e 55 60
e 55 61
e 55 62
e 55 63
e 55 64
e 55 70
e 55 74
e 55 78
e 55 81
e 55 82
e 55 83
e 55 85
e 55 86
e 55 87
e 55 90
e 55 91
e 55 92
e 55 93
e 55 94
e 56 57
e 56 59
e 56 63
e 56 64
e 56 66
e 56 67
e 56 70
e 56 71
e 56 72
e 56 73
e 56 74
e 56 75
e 56 76
e 56 78
e 56 81
e 56 82
e 56 85
e 56 86
e 56 89
e 56 92
e 56 97
e 56 98
e 57 58
e 57 59
e 57 60
e 57 61
e 57 63
e 57 64
e 57 66
e 57 71
e 57 73
e 57 75
e 57 78
e 57 79
e 57 80
e 57 84
e 57 86
e 57 88
e 57 90
e 57 94
e 57 95
e 57 96
e 57 98
e 57 99
e 58 60
e 58 64
e 58 66
e 58 69
e 58 70
e 58 71
e 58 72
e 58 73
e 58 74
e 58 77
e 58 78
e 58 79
e 58 85
e 58 87
e 58 88
e 58 90
e 58 95
e 58 98
e 58 100
e 59 60
e 59 63
e 59 64
e 59 65
e 59 66
e 59 67
e 59 68
e 59 69
e 59 70
e 59 73
e 59 74
e 59 75
e 59 81
e 59 82
e 59 83
e 59 85
e 59 90
e 59 93
e 59 95
e 59 100
e 60 61
e 60 62
e 60 66
e 60 72
e 60 73
e 60 76
e 60 77
e 60 78
e 60 86
e 60 87
e 60 89
e 60 91
e 60 93
e 60 95
e 60 100
e 61 63
e 61 69
e 61 70
e 61 71
e 61 72
e 61 73
e 61 74
e 61 76
e 61 77
e 61 79
e 61 80
e 61 85
e 61 86
e 61 91
e 61 92
e 61 96
e 61 100
e 62 65
e 62 69
e 62 70
e 62 74
e 62 77
e 62 79
e 62 82
e 62 83
e 62 84
e 62 86
e 62 88
e 62 89
e 62 93
e 62 97
e 62 99
e 63 64
e 63 66
e 63 67
e 63 68
e 63 76
e 63 77
e 63 78
e 63 81
e 63 83
e 63 84
e 63 87
e 63 88
e 63 91
e 63 95
e 63 96
e 63 99
e 63 100
e 64 66
e 64 67
e 64 68
e 64 70
e 64 74
e 64 83
e 64 88
e 64 90
e 64 93
e 64 94
e 64 100
e 65 67
e 65 69
e 65 72
e 65 74
e 65 75
e 65 81
e 65 83
e 65 84
e 65 90
e 65 91
e 65 94
e 65 96
e 65 99
e 65 100
e 66 67
e 66 68
e 66 72
e 66 73
e 66 76
e 66 77
e 66 79
e 66 80
e 66 82
e 66 85
e 66 91
e 66 96
e 66 97
e 66 99
e 67 72
e 67 73
e 67 80
e 67 82
e 67 83
e 67 85
e 67 86
e 67 92
e 67 93
e 67 94
e 67 95
e 67 97
e 67 99
e 67 100
e 68 72
e 68 73
e 68 74
e 68 75
e 68 78
e 68 81
e 68 83
e 68 84
e 68 85
e 68 86
e 68 87
e 68 89
e 68 95
e 68 96
e 69 71
e 69 72
e 69 73
e 69 74
e 69 77
e 69 78
e 69 79
e 69 80
e 69 82
e 69 87
e 69 88
e 69 89
e 69 91
e 69 92
e 69 94
e 69 96
e 69 97
e 69 99
e 69 100
e 70 72
e 70 74
e 70 75
e 70 77
e 70 78
e 70 79
e 70 81
e 70 82
e 70 89
e 70 90
e 70 91
e 70 95
e 71 73
e 71 76
e 71 83
e 71 84
e 71 85
e 71 88
e 71 90
e 71 91
e 71 92
e 71 93
e 71 94
e 71 96
e 71 100
e 72 76
e 72 79
e 72 81
e 72 82
e 72 86
e 72 87
e 72 88
e 72 89
e 72 91
e 72 93
e 72 95
e 72 96
e 72 97
e 72 100
e 73 76
e 73 83
e 73 84
e 73 89
e 73 90
e 73 92
e 73 94
e 74 78
e 74 79
e 74 81
e 74 82
e 74 85
e 74 88
e 74 93
e 74 100
e 75 79
e 75 81
e 75 83
e 75 84
e 75 85
e 75 87
e 75 94
e 75 95
e 75 97
e 75 98
e 76 77
e 76 78
e 76 79
e 76 81
e 76 82
e 76 85
e 76 86
e 76 87
e 76 89
e 76 90
e 76 94
e 76 96
e 76 99
e 77 81
e 77 82
e 77 85
e 77 86
e 77 87
e 77 89
e 77 90
e 77 94
e 77 96
e 77 98
e 77 99
e 78 81
e 78 84
e 78 86
e 78 87
e 78 92
e 78 96
e 78 97
e 78 99
e 79 81
e 79 86
e 79 87
e 79 95
e 79 97
e 79 98
e 79 99
e 80 81
e 80 82
e 80 87
e 80 89
e 80 90
e 80 91
e 80 92
e 80 100
e 81 82
e 81 88
e 81 89
e 81 93
e 81 100
e 82 88
e 82 97
e 82 100
e 83 85
e 83 86
e 83 88
e 83 91
e 83 92
e 83 94
e 83 95
e 83 98
e 83 99
e 83 100
e 84 85
e 84 86
e 84 87
e 84 88
e 84 96
e 84 97
e 84 98
e 84 99
e 84 100
e 85 87
e 85 89
e 85 90
e 85 97
e 85 100
e 86 87
e 86 88
e 86 92
e 86 93
e 86 96
e 86 97
e 86 99
e 87 88
e 87 90
e 87 92
e 87 96
e 87 97
e 88 91
e 88 95
e 88 97
e 88 99
e 89 94
e 89 99
e 89 100
e 90 94
e 90 96
e 90 98
e 91 93
e 91 94
e 91 98
e 91 99
e 91 100
e 92 94
e 92 96
e 93 94
e 93 99
e 94 100
e 95 98
e 98 100
n 14 1
n 21 1
n 22 1
n 25 1
n 37 1
n 39 1
n 42 1
n 45 1
n 52 1
n 53 1
n 61 2
n 66 4
n 78 1
n 81 1
n 83 3
n 84 1
n 87 1
n 89 1
n 90 1
n 93 1
